data;
param n:=50;
param w:=1 107 2 -202 3 157 4 89 5 -35 6 47 7 16 8 -157 9 -85 10 -168 11 -13 12 105 13 8 14 -191 15 -151 16 221 17 -261 18 51 19 -22 20 210 21 123 22 -163 23 -131 24 -87 25 -224 26 187 27 77 28 175 29 141 30 -159 31 50 32 -144 33 110 34 -26 35 -7 36 116 37 -110 38 -265 39 220 40 38 41 54 42 178 43 106 44 6 45 -37 46 78 47 -36 48 7 49 102 50 -105;
